Route #1: 73 1 22 64 42 43 41 56 23 63 33
Route #2: 6 62 28 61 21 74 2 68 75
Route #3: 30 48 47 36 69 71 60 70 20 37 5 29
Route #4: 34 52 27 13 54 57 15 45 4
Route #5: 67 7 35 14 59 19 8 46
Route #6: 26 58 38 65 66 11 53
Route #7: 17 40 9 39 31 10 72 12
Route #8: 51 16 49 24 18 55 25 50 32 44 3
Cost 740
Time 0.10394
